
Gurobi 9.0.3 (win64, Java) logging started Sat Feb 20 19:20:34 2021


--------------------------------------------
Warning: your license will expire in 12 days
--------------------------------------------

Academic license - for non-commercial use only
